c colouring generated by benchmark framework
p edge 206 3540
v 1 28
v 2 29
v 3 30
v 4 25
v 5 5
v 6 9
v 7 3
v 8 23
v 9 1
v 10 15
v 11 2
v 12 20
v 13 0
v 14 8
v 15 13
v 16 4
v 17 24
v 18 29
v 19 10
v 20 8
v 21 6
v 22 4
v 23 22
v 24 14
v 25 26
v 26 15
v 27 3
v 28 5
v 29 1
v 30 13
v 31 2
v 32 0
v 33 12
v 34 2
v 35 22
v 36 19
v 37 13
v 38 12
v 39 27
v 40 8
v 41 22
v 42 9
v 43 26
v 44 16
v 45 10
v 46 20
v 47 7
v 48 11
v 49 11
v 50 15
v 51 6
v 52 1
v 53 26
v 54 7
v 55 18
v 56 12
v 57 11
v 58 14
v 59 16
v 60 14
v 61 21
v 62 7
v 63 7
v 64 7
v 65 7
v 66 18
v 67 7
v 68 9
v 69 12
v 70 7
v 71 7
v 72 7
v 73 16
v 74 19
v 75 6
v 76 6
v 77 19
v 78 16
v 79 11
v 80 12
v 81 16
v 82 11
v 83 17
v 84 18
v 85 6
v 86 20
v 87 6
v 88 17
v 89 6
v 90 10
v 91 6
v 92 10
v 93 8
v 94 0
v 95 21
v 96 3
v 97 7
v 98 9
v 99 22
v 100 14
v 101 2
v 102 14
v 103 14
v 104 16
v 105 14
v 106 16
v 107 5
v 108 28
v 109 29
v 110 29
v 111 9
v 112 22
v 113 14
v 114 28
v 115 14
v 116 17
v 117 18
v 118 17
v 119 28
v 120 16
v 121 18
v 122 14
v 123 14
v 124 7
v 125 11
v 126 6
v 127 17
v 128 14
v 129 18
v 130 16
v 131 12
v 132 6
v 133 11
v 134 10
v 135 7
v 136 18
v 137 17
v 138 16
v 139 27
v 140 11
v 141 14
v 142 14
v 143 14
v 144 14
v 145 7
v 146 7
v 147 6
v 148 6
v 149 14
v 150 8
v 151 14
v 152 25
v 153 25
v 154 5
v 155 22
v 156 14
v 157 16
v 158 14
v 159 14
v 160 14
v 161 11
v 162 12
v 163 12
v 164 1
v 165 27
v 166 6
v 167 12
v 168 14
v 169 14
v 170 16
v 171 16
v 172 16
v 173 17
v 174 17
v 175 16
v 176 14
v 177 14
v 178 16
v 179 10
v 180 10
v 181 10
v 182 16
v 183 6
v 184 16
v 185 12
v 186 17
v 187 14
v 188 11
v 189 16
v 190 16
v 191 27
v 192 16
v 193 16
v 194 27
v 195 14
v 196 12
v 197 12
v 198 2
v 199 16
v 200 16
v 201 14
v 202 16
v 203 11
v 204 6
v 205 16
v 206 14
